p cnf 2361 245
-2 0
-2 0
-1 -3 0
-4 0
-4 0
-4 0
-1 -3 -5 0
-7 0
-7 0
-6 -8 0
-9 0
-9 0
-9 0
-6 -8 -10 0
-12 0
13 -12 0
-11 0
-14 0
13 -14 0
-14 0
-11 -15 0
-17 0
-17 0
-16 -18 0
-19 0
-19 0
-19 0
-16 -18 -20 0
-22 0
-22 0
-21 -23 0
-24 0
-24 0
-24 0
-21 -23 -25 0
-27 0
-27 0
-26 -28 0
-30 0
-30 0
-29 -31 0
-33 0
-33 0
-32 -34 0
-35 -36 0
-37 -36 0
-38 -36 0
-39 -36 0
-40 -36 0
-41 -36 0
-42 -36 0
-43 -36 0
-44 -36 0
-45 -36 0
-46 -36 0
-47 -36 0
-48 -36 0
-49 -36 0
-50 -36 0
-51 -36 0
-52 -36 0
-53 -36 0
-54 -36 0
-55 -36 0
-56 -36 0
-57 -36 0
-58 -36 0
-59 -36 0
-60 -36 0
-61 -36 0
-62 -36 0
-63 -36 0
-64 -36 0
-65 -36 0
-66 -36 0
-36 0
67 0
-68 -69 0
-70 -69 0
-71 -69 0
-72 -69 0
-73 -69 0
-74 -69 0
-75 -69 0
-76 -69 0
-77 -69 0
-78 -69 0
-79 -69 0
-80 -69 0
-81 -69 0
-82 -69 0
-83 -69 0
-84 -69 0
-85 -69 0
-86 -69 0
-87 -69 0
-88 -69 0
-89 -69 0
-90 -69 0
-91 -69 0
-92 -69 0
-93 -69 0
-94 -69 0
-95 -69 0
-96 -69 0
-97 -69 0
-98 -69 0
-99 -69 0
-69 0
100 0
-101 -102 0
-103 -102 0
-104 -102 0
-105 -102 0
-106 -102 0
-107 -102 0
-108 -102 0
-109 -102 0
-110 -102 0
-111 -102 0
-112 -102 0
-113 -102 0
-114 -102 0
-115 -102 0
-116 -102 0
-117 -102 0
-118 -102 0
-119 -102 0
-120 -102 0
-121 -102 0
-122 -102 0
-123 -102 0
-124 -102 0
-125 -102 0
-126 -102 0
-127 -102 0
-128 -102 0
-129 -102 0
-130 -102 0
-131 -102 0
-132 -102 0
-102 0
133 0
-134 -135 0
-136 -135 0
-137 -135 0
-138 -135 0
-139 -135 0
-140 -135 0
-141 -135 0
-142 -135 0
-143 -135 0
-144 -135 0
-145 -135 0
-146 -135 0
-147 -135 0
-148 -135 0
-149 -135 0
-150 -135 0
-151 -135 0
-152 -135 0
-153 -135 0
-154 -135 0
-155 -135 0
-156 -135 0
-157 -135 0
-158 -135 0
-159 -135 0
-160 -135 0
-161 -135 0
-162 -135 0
-163 -135 0
-164 -135 0
-165 -135 0
-135 0
166 0
-167 0
-36 0
-1 -167 -168 0
-168 0
-1 0
-167 0
-168 0
-169 0
-69 0
-3 -169 -170 0
-170 0
-3 0
-169 0
-170 0
-171 0
-102 0
-5 -171 -172 0
-172 0
-5 0
-171 0
-172 0
-173 0
-173 0
-3 -5 0
-174 0
-174 0
-1 -173 0
-6 -167 -175 0
-175 0
-6 0
-167 0
-175 0
-8 -169 -176 0
-176 0
-8 0
-169 0
-176 0
-102 0
177 0
-10 0
177 0
-10 177 178 0
178 0
-179 0
-180 0
-174 0
-182 0
-174 0
-183 0
-8 -182 0
-8 -183 0
-174 0
-184 0
-6 -183 0
-6 -184 0
-11 -167 -185 0
-185 0
-11 0
-167 0
-185 186 0
-69 0
186 0
-187 0
13 186 -187 0
186 0
13 0
188 0
189 0
-187 0
